2023/05/23
Julia is now 1.9.0
previous version was 1.7.2
2023/11/29
gurobi is now 11.0.0
previous version was 10.0.2
solving instance transportation 2 8 cubic
presolving:
(round 1, fast)       2 del vars, 2 del conss, 0 add conss, 8 chg bounds, 0 chg sides, 0 chg coeffs, 0 upgd conss, 0 impls, 0 clqs
(round 2, exhaustive) 2 del vars, 2 del conss, 0 add conss, 8 chg bounds, 0 chg sides, 0 chg coeffs, 2 upgd conss, 0 impls, 0 clqs
   (0.0s) probing cycle finished: starting next cycle
(round 3, exhaustive) 2 del vars, 2 del conss, 0 add conss, 10 chg bounds, 0 chg sides, 0 chg coeffs, 2 upgd conss, 16 impls, 1 clqs
   (0.0s) probing cycle finished: starting next cycle
   (0.0s) symmetry computation started: requiring (bin +, int -, cont -), (fixed: bin -, int +, cont +)
   (0.0s) no symmetry present
presolving (4 rounds: 4 fast, 3 medium, 3 exhaustive):
 2 deleted vars, 2 deleted constraints, 0 added constraints, 10 tightened bounds, 0 added holes, 0 changed sides, 0 changed coefficients
 16 implications, 1 cliques
presolved problem has 10 variables (2 bin, 0 int, 0 impl, 8 cont) and 10 constraints
      2 constraints of type <varbound>
      4 constraints of type <linear>
      4 constraints of type <nonlinear>
Presolving Time: 0.00

 time | node  | left  |LP iter|LP it/n|mem/heur|mdpt |vars |cons |rows |cuts |sepa|confs|strbr|  dualbound   | primalbound  |  gap   | compl. 
t 0.0s|     1 |     0 |    29 |     - |  trysol|   0 |  22 |  10 |  26 |   0 |  0 |   0 |   0 |-2.455756e+01 | 1.364492e+02 |    Inf | unknown
  0.0s|     1 |     0 |    52 |     - |   897k |   0 |  22 |  10 |  26 |   0 |  0 |   0 |   0 | 7.321686e+01 | 1.364492e+02 |  86.36%| unknown
  0.0s|     1 |     0 |    56 |     - |   908k |   0 |  22 |  10 |  28 |   2 |  1 |   0 |   0 | 8.345726e+01 | 1.364492e+02 |  63.50%| unknown
  0.0s|     1 |     0 |    58 |     - |   943k |   0 |  22 |  10 |  29 |   5 |  2 |   0 |   0 | 8.372936e+01 | 1.364492e+02 |  62.96%| unknown
r 0.0s|     1 |     0 |    58 |     - |shifting|   0 |  22 |  10 |  29 |   5 |  2 |   0 |   0 | 8.372936e+01 | 1.355100e+02 |  61.84%| unknown
  0.0s|     1 |     0 |    59 |     - |   944k |   0 |  22 |  10 |  32 |   8 |  3 |   0 |   0 | 8.394024e+01 | 1.355100e+02 |  61.44%| unknown
  0.0s|     1 |     0 |    60 |     - |   944k |   0 |  22 |  10 |  34 |  10 |  4 |   0 |   0 | 8.403634e+01 | 1.355100e+02 |  61.25%| unknown
  0.0s|     1 |     0 |    61 |     - |   954k |   0 |  22 |  10 |  36 |  12 |  5 |   0 |   0 | 8.408255e+01 | 1.355100e+02 |  61.16%| unknown
  0.0s|     1 |     0 |    62 |     - |   956k |   0 |  22 |  10 |  39 |  15 |  6 |   0 |   0 | 8.410525e+01 | 1.355100e+02 |  61.12%| unknown
  0.0s|     1 |     0 |    64 |     - |   956k |   0 |  22 |  10 |  42 |  18 |  7 |   0 |   0 | 8.411650e+01 | 1.355100e+02 |  61.10%| unknown
  0.0s|     1 |     0 |    67 |     - |   965k |   0 |  22 |  10 |  45 |  21 |  8 |   0 |   0 | 8.411831e+01 | 1.355100e+02 |  61.09%| unknown
  0.0s|     1 |     0 |    70 |     - |   965k |   0 |  22 |  10 |  48 |  24 |  9 |   0 |   0 | 8.412107e+01 | 1.355100e+02 |  61.09%| unknown
  0.0s|     1 |     0 |    73 |     - |   965k |   0 |  22 |  10 |  49 |  25 | 10 |   0 |   0 | 8.412109e+01 | 1.355100e+02 |  61.09%| unknown
  0.0s|     1 |     0 |    74 |     - |   965k |   0 |  22 |  10 |  50 |  26 | 11 |   0 |   0 | 8.412110e+01 | 1.355100e+02 |  61.09%| unknown
  0.0s|     1 |     0 |    75 |     - |   965k |   0 |  22 |  10 |  51 |  27 | 12 |   0 |   0 | 8.412128e+01 | 1.355100e+02 |  61.09%| unknown
 time | node  | left  |LP iter|LP it/n|mem/heur|mdpt |vars |cons |rows |cuts |sepa|confs|strbr|  dualbound   | primalbound  |  gap   | compl. 
  0.0s|     1 |     0 |    76 |     - |   965k |   0 |  22 |  10 |  52 |  28 | 13 |   0 |   0 | 8.412133e+01 | 1.355100e+02 |  61.09%| unknown
  0.0s|     1 |     0 |   139 |     - |   965k |   0 |  22 |   9 |  52 |  28 | 15 |   0 |   0 | 8.412133e+01 | 1.355100e+02 |  61.09%| unknown
L 0.0s|     1 |     0 |   139 |     - |  subnlp|   0 |  22 |   9 |  52 |  28 | 17 |   0 |   0 | 8.412133e+01 | 1.355100e+02 |  61.09%| unknown
(run 1, node 1) restarting after 1 global fixings of integer variables

presolving:
(round 1, fast)       13 del vars, 0 del conss, 0 add conss, 0 chg bounds, 0 chg sides, 1 chg coeffs, 0 upgd conss, 16 impls, 0 clqs
presolving (2 rounds: 2 fast, 1 medium, 1 exhaustive):
 13 deleted vars, 0 deleted constraints, 0 added constraints, 0 tightened bounds, 0 added holes, 0 changed sides, 1 changed coefficients
 16 implications, 0 cliques
presolved problem has 9 variables (1 bin, 0 int, 0 impl, 8 cont) and 9 constraints
      1 constraints of type <varbound>
      4 constraints of type <linear>
      4 constraints of type <nonlinear>
Presolving Time: 0.00
transformed 3/4 original solutions to the transformed problem space

 time | node  | left  |LP iter|LP it/n|mem/heur|mdpt |vars |cons |rows |cuts |sepa|confs|strbr|  dualbound   | primalbound  |  gap   | compl. 
  0.5s|     1 |     0 |   163 |     - |   968k |   0 |  21 |   9 |  25 |   0 |  0 |   0 |   0 | 8.495413e+01 | 1.355100e+02 |  59.51%| unknown
t 0.5s|     1 |     0 |   163 |     - |  trysol|   0 |  21 |   9 |  25 |   0 |  0 |   0 |   0 | 8.495413e+01 | 1.281019e+02 |  50.79%| unknown
  0.5s|     1 |     0 |   180 |     - |   980k |   0 |  21 |   9 |  26 |   1 |  1 |   0 |   0 | 9.289537e+01 | 1.281019e+02 |  37.90%| unknown
  0.5s|     1 |     0 |   180 |     - |   980k |   0 |  21 |   9 |  26 |   1 |  1 |   0 |   0 | 9.289537e+01 | 1.281019e+02 |  37.90%| unknown
  0.5s|     1 |     0 |   181 |     - |   980k |   0 |  21 |   9 |  27 |   2 |  2 |   0 |   0 | 9.314023e+01 | 1.281019e+02 |  37.54%| unknown
  0.5s|     1 |     0 |   182 |     - |   980k |   0 |  21 |   9 |  28 |   3 |  3 |   0 |   0 | 9.327098e+01 | 1.281019e+02 |  37.34%| unknown
  0.5s|     1 |     0 |   184 |     - |   980k |   0 |  21 |   9 |  30 |   5 |  4 |   0 |   0 | 9.333886e+01 | 1.281019e+02 |  37.24%| unknown
  0.5s|     1 |     0 |   189 |     - |   980k |   0 |  21 |   9 |  33 |   8 |  5 |   0 |   0 | 9.337349e+01 | 1.281019e+02 |  37.19%| unknown
  0.5s|     1 |     0 |   194 |     - |   980k |   0 |  21 |   9 |  36 |  11 |  6 |   0 |   0 | 9.339099e+01 | 1.281019e+02 |  37.17%| unknown
  0.5s|     1 |     0 |   195 |     - |   980k |   0 |  21 |   9 |  39 |  14 |  7 |   0 |   0 | 9.339157e+01 | 1.281019e+02 |  37.17%| unknown
  0.5s|     1 |     0 |   198 |     - |   980k |   0 |  21 |   9 |  42 |  17 |  8 |   0 |   0 | 9.339568e+01 | 1.281019e+02 |  37.16%| unknown
  0.5s|     1 |     0 |   199 |     - |   980k |   0 |  21 |   9 |  43 |  18 |  9 |   0 |   0 | 9.339636e+01 | 1.281019e+02 |  37.16%| unknown
  0.5s|     1 |     0 |   200 |     - |   980k |   0 |  21 |   9 |  44 |  19 | 10 |   0 |   0 | 9.339660e+01 | 1.281019e+02 |  37.16%| unknown
  0.5s|     1 |     0 |   201 |     - |   980k |   0 |  21 |   9 |  45 |  20 | 11 |   0 |   0 | 9.339663e+01 | 1.281019e+02 |  37.16%| unknown
  0.5s|     1 |     0 |   202 |     - |   980k |   0 |  21 |   9 |  46 |  21 | 12 |   0 |   0 | 9.339669e+01 | 1.281019e+02 |  37.16%| unknown
 time | node  | left  |LP iter|LP it/n|mem/heur|mdpt |vars |cons |rows |cuts |sepa|confs|strbr|  dualbound   | primalbound  |  gap   | compl. 
  0.5s|     1 |     0 |   250 |     - |   980k |   0 |  21 |   9 |  46 |  21 | 14 |   0 |   0 | 9.339669e+01 | 1.281019e+02 |  37.16%| unknown
  0.5s|     1 |     0 |   275 |     - |   980k |   0 |  21 |   9 |  48 |  23 | 15 |   0 |   0 | 1.002610e+02 | 1.281019e+02 |  27.77%| unknown
  0.5s|     1 |     0 |   276 |     - |   980k |   0 |  21 |   9 |  51 |  26 | 16 |   0 |   0 | 1.014505e+02 | 1.281019e+02 |  26.27%| unknown
  0.5s|     1 |     0 |   277 |     - |   980k |   0 |  21 |   9 |  43 |  29 | 17 |   0 |   0 | 1.019925e+02 | 1.281019e+02 |  25.60%| unknown
  0.5s|     1 |     0 |   282 |     - |   980k |   0 |  21 |   9 |  46 |  32 | 18 |   0 |   0 | 1.020900e+02 | 1.281019e+02 |  25.48%| unknown
  0.5s|     1 |     0 |   283 |     - |   980k |   0 |  21 |   9 |  49 |  35 | 19 |   0 |   0 | 1.022092e+02 | 1.281019e+02 |  25.33%| unknown
  0.5s|     1 |     0 |   284 |     - |   980k |   0 |  21 |   9 |  52 |  38 | 20 |   0 |   0 | 1.022359e+02 | 1.281019e+02 |  25.30%| unknown
  0.5s|     1 |     0 |   285 |     - |   980k |   0 |  21 |   9 |  55 |  41 | 21 |   0 |   0 | 1.022444e+02 | 1.281019e+02 |  25.29%| unknown
  0.5s|     1 |     0 |   286 |     - |   980k |   0 |  21 |   9 |  56 |  42 | 22 |   0 |   0 | 1.022456e+02 | 1.281019e+02 |  25.29%| unknown
  0.5s|     1 |     0 |   289 |     - |   981k |   0 |  21 |   9 |  49 |  45 | 23 |   0 |   0 | 1.022462e+02 | 1.281019e+02 |  25.29%| unknown
  0.5s|     1 |     0 |   292 |     - |   981k |   0 |  21 |   9 |  51 |  47 | 24 |   0 |   0 | 1.022463e+02 | 1.281019e+02 |  25.29%| unknown
  0.5s|     1 |     0 |   295 |     - |   981k |   0 |  21 |   9 |  52 |  48 | 25 |   0 |   0 | 1.022463e+02 | 1.281019e+02 |  25.29%| unknown
  0.5s|     1 |     0 |   296 |     - |   981k |   0 |  21 |   9 |  53 |  49 | 26 |   0 |   0 | 1.022463e+02 | 1.281019e+02 |  25.29%| unknown
  0.5s|     1 |     0 |   297 |     - |   981k |   0 |  21 |   9 |  54 |  50 | 27 |   0 |   0 | 1.022464e+02 | 1.281019e+02 |  25.29%| unknown
  0.5s|     1 |     0 |   298 |     - |   981k |   0 |  21 |   9 |  55 |  51 | 28 |   0 |   0 | 1.022464e+02 | 1.281019e+02 |  25.29%| unknown
 time | node  | left  |LP iter|LP it/n|mem/heur|mdpt |vars |cons |rows |cuts |sepa|confs|strbr|  dualbound   | primalbound  |  gap   | compl. 
d 0.5s|     1 |     0 |   298 |     - |    mpec|   0 |  21 |   9 |  55 |  51 | 30 |   0 |   0 | 1.022464e+02 | 1.268466e+02 |  24.06%| unknown
  0.5s|     1 |     0 |   298 |     - |   981k |   0 |  21 |   9 |  55 |  51 | 30 |   0 |   0 | 1.022464e+02 | 1.268466e+02 |  24.06%| unknown
  0.5s|     1 |     0 |   298 |     - |   981k |   0 |  21 |   9 |  54 |  51 | 30 |   0 |   0 | 1.022464e+02 | 1.268466e+02 |  24.06%| unknown
  0.5s|     1 |     0 |   329 |     - |   981k |   0 |  21 |   9 |  36 |  54 | 31 |   0 |   0 | 1.022595e+02 | 1.268466e+02 |  24.04%| unknown
  0.5s|     1 |     0 |   329 |     - |   981k |   0 |  21 |   8 |  36 |  54 | 32 |   0 |   0 | 1.022595e+02 | 1.268466e+02 |  24.04%| unknown
  0.5s|     1 |     0 |   332 |     - |   981k |   0 |  21 |   8 |  38 |  56 | 33 |   0 |   0 | 1.022595e+02 | 1.268466e+02 |  24.04%| unknown
  0.5s|     1 |     0 |   337 |     - |   981k |   0 |  21 |   8 |  42 |  60 | 34 |   0 |   0 | 1.022595e+02 | 1.268466e+02 |  24.04%| unknown
  0.5s|     1 |     0 |   339 |     - |   981k |   0 |  21 |   8 |  46 |  64 | 36 |   0 |   0 | 1.022595e+02 | 1.268466e+02 |  24.04%| unknown
  0.5s|     1 |     0 |   341 |     - |   981k |   0 |  21 |   8 |  48 |  66 | 38 |   0 |   0 | 1.022595e+02 | 1.268466e+02 |  24.04%| unknown
  0.5s|     1 |     0 |   342 |     - |   981k |   0 |  21 |   8 |  49 |  67 | 40 |   0 |   0 | 1.022595e+02 | 1.268466e+02 |  24.04%| unknown
  0.5s|     1 |     2 |   342 |     - |   982k |   0 |  21 |   8 |  49 |  67 | 42 |   0 |   0 | 1.022595e+02 | 1.268466e+02 |  24.04%| unknown

SCIP Status        : problem is solved [optimal solution found]
Solving Time (sec) : 0.53
Solving Nodes      : 3 (total of 4 nodes in 2 runs)
Primal Bound       : +1.26846578178789e+02 (6 solutions)
Dual Bound         : +1.26846578178789e+02
Gap                : 0.00 %
primal_bound = 126.84657817878917, dual_bound = 126.84657817878917, gap = 0.0, time = 3.27
